src/LKH/IO/y-8_t.tour
NAME : y-8_t.-287.tour
COMMENT : Length = -287
COMMENT : Found by LKH [Keld Helsgaun] Sun Apr 13 17:05:01 2025
TYPE : TOUR
DIMENSION : 8
TOUR_SECTION
1
5
4
3
2
7
6
8
-1
EOF
